NAME : pr152.tour
COMMENT : Optimum tour for pr152.tsp (Length 73682)
TYPE : TOUR
DIMENSION : 152
TOUR_SECTION
141
139
140
117
110
109
108
85
84
86
107
106
105
83
87
104
111
112
82
88
103
102
101
81
89
100
113
114
80
90
99
98
97
79
71
72
53
52
46
70
69
54
45
44
55
56
68
67
66
65
57
43
42
58
59
64
63
62
61
60
41
40
18
17
9
8
10
19
21
20
7
11
22
23
39
6
12
24
25
26
5
13
27
28
38
4
14
29
30
31
3
15
32
33
37
2
16
1
35
36
34
47
51
73
75
48
49
50
76
74
77
93
94
95
92
78
91
96
115
116
124
125
126
152
150
151
127
128
123
122
129
130
149
148
147
131
132
121
120
133
134
146
145
144
135
136
119
118
137
138
143
142
-1
EOF
